# Solution for model Linear Program 2, 2
# Objective value = 48
z[1,-1] 0
z[1,0] 1
z[1,1] 0
z[1,2] 0
z[1,3] 0
z[1,4] 0
z[1,5] 0
z[1,6] 0
z[1,7] 0
z[1,8] 0
z[1,9] 0
z[1,10] 0
z[1,11] 0
z[1,12] 0
z[1,13] 0
z[1,14] 0
z[1,15] 0
z[1,16] 0
z[1,17] 0
z[1,18] 0
z[1,19] 0
z[1,20] 0
z[1,21] 0
z[1,22] 0
z[1,23] 0
z[1,24] 0
z[1,25] 0
z[1,26] 0
z[1,27] 0
z[1,28] 0
z[1,29] 0
z[1,30] 0
z[1,31] 0
z[1,32] 0
z[1,33] 0
z[1,34] 0
z[1,35] 0
z[1,36] 0
z[1,37] 0
z[1,38] 0
z[1,39] 0
z[1,40] 0
z[1,41] 0
z[1,42] 0
z[1,43] 0
z[1,44] 0
z[1,45] 0
z[1,46] 0
z[1,47] 0
z[1,48] 0
z[1,49] 0
z[1,50] 0
z[1,51] 0
z[1,52] 0
z[1,53] 0
z[2,-1] 0
z[2,0] 1
z[2,1] 0
z[2,2] 0
z[2,3] 0
z[2,4] 0
z[2,5] 0
z[2,6] 0
z[2,7] 0
z[2,8] 0
z[2,9] 0
z[2,10] 0
z[2,11] 0
z[2,12] 0
z[2,13] 0
z[2,14] 0
z[2,15] 0
z[2,16] 0
z[2,17] 0
z[2,18] 0
z[2,19] 0
z[2,20] 0
z[2,21] 0
z[2,22] 0
z[2,23] 0
z[2,24] 0
z[2,25] 0
z[2,26] 0
z[2,27] 0
z[2,28] 0
z[2,29] 0
z[2,30] 0
z[2,31] 0
z[2,32] 0
z[2,33] 0
z[2,34] 0
z[2,35] 0
z[2,36] 0
z[2,37] 0
z[2,38] 0
z[2,39] 0
z[2,40] 0
z[2,41] 0
z[2,42] 0
z[2,43] 0
z[2,44] 0
z[2,45] 0
z[2,46] 0
z[2,47] 0
z[2,48] 0
z[2,49] 0
z[2,50] 0
z[2,51] 0
z[2,52] 0
z[2,53] 0
z[3,-1] 0
z[3,0] 1
z[3,1] 0
z[3,2] 0
z[3,3] 0
z[3,4] 0
z[3,5] 0
z[3,6] 0
z[3,7] 0
z[3,8] 0
z[3,9] 0
z[3,10] 0
z[3,11] 0
z[3,12] 0
z[3,13] 0
z[3,14] 0
z[3,15] 0
z[3,16] 0
z[3,17] 0
z[3,18] 0
z[3,19] 0
z[3,20] 0
z[3,21] 0
z[3,22] 0
z[3,23] 0
z[3,24] 0
z[3,25] 0
z[3,26] 0
z[3,27] 0
z[3,28] 0
z[3,29] 0
z[3,30] 0
z[3,31] 0
z[3,32] 0
z[3,33] 0
z[3,34] 0
z[3,35] 0
z[3,36] 0
z[3,37] 0
z[3,38] 0
z[3,39] 0
z[3,40] 0
z[3,41] 0
z[3,42] 0
z[3,43] 0
z[3,44] 0
z[3,45] 0
z[3,46] 0
z[3,47] 0
z[3,48] 0
z[3,49] 0
z[3,50] 0
z[3,51] 0
z[3,52] 0
z[3,53] 0
z[4,-1] 0
z[4,0] 0
z[4,1] 0
z[4,2] 0
z[4,3] 0
z[4,4] 0
z[4,5] 0
z[4,6] 0
z[4,7] 0
z[4,8] 0
z[4,9] 0
z[4,10] 0
z[4,11] 0
z[4,12] 0
z[4,13] 0
z[4,14] 0
z[4,15] 0
z[4,16] 0
z[4,17] 0
z[4,18] 1
z[4,19] 1
z[4,20] 1
z[4,21] 1
z[4,22] 1
z[4,23] 1
z[4,24] 1
z[4,25] 1
z[4,26] 1
z[4,27] 1
z[4,28] 0
z[4,29] 0
z[4,30] 0
z[4,31] 0
z[4,32] 0
z[4,33] 0
z[4,34] 0
z[4,35] 0
z[4,36] 0
z[4,37] 0
z[4,38] 0
z[4,39] 0
z[4,40] 0
z[4,41] 0
z[4,42] 0
z[4,43] 0
z[4,44] 0
z[4,45] 0
z[4,46] 0
z[4,47] 0
z[4,48] 0
z[4,49] 0
z[4,50] 0
z[4,51] 0
z[4,52] 0
z[4,53] 0
z[5,-1] 0
z[5,0] 0
z[5,1] 0
z[5,2] 0
z[5,3] 0
z[5,4] 0
z[5,5] 0
z[5,6] 0
z[5,7] 0
z[5,8] 0
z[5,9] 0
z[5,10] 0
z[5,11] 0
z[5,12] 0
z[5,13] 0
z[5,14] 0
z[5,15] 0
z[5,16] 0
z[5,17] 0
z[5,18] 0
z[5,19] 0
z[5,20] 0
z[5,21] 0
z[5,22] 0
z[5,23] 0
z[5,24] 0
z[5,25] 0
z[5,26] 0
z[5,27] 0
z[5,28] 1
z[5,29] 0
z[5,30] 0
z[5,31] 0
z[5,32] 0
z[5,33] 0
z[5,34] 0
z[5,35] 0
z[5,36] 0
z[5,37] 0
z[5,38] 0
z[5,39] 0
z[5,40] 0
z[5,41] 0
z[5,42] 0
z[5,43] 0
z[5,44] 0
z[5,45] 0
z[5,46] 0
z[5,47] 0
z[5,48] 0
z[5,49] 0
z[5,50] 0
z[5,51] 0
z[5,52] 0
z[5,53] 0
z[6,-1] 0
z[6,0] 0
z[6,1] 0
z[6,2] 0
z[6,3] 0
z[6,4] 0
z[6,5] 0
z[6,6] 0
z[6,7] 0
z[6,8] 0
z[6,9] 0
z[6,10] 0
z[6,11] 0
z[6,12] 0
z[6,13] 0
z[6,14] 0
z[6,15] 0
z[6,16] 0
z[6,17] 0
z[6,18] 0
z[6,19] 0
z[6,20] 0
z[6,21] 0
z[6,22] 0
z[6,23] 0
z[6,24] 0
z[6,25] 0
z[6,26] 0
z[6,27] 0
z[6,28] 0
z[6,29] 0
z[6,30] 0
z[6,31] 0
z[6,32] 0
z[6,33] 0
z[6,34] 0
z[6,35] 0
z[6,36] 0
z[6,37] 0
z[6,38] 0
z[6,39] 0
z[6,40] 1
z[6,41] 1
z[6,42] 1
z[6,43] 1
z[6,44] 0
z[6,45] 0
z[6,46] 0
z[6,47] 0
z[6,48] 0
z[6,49] 0
z[6,50] 0
z[6,51] 0
z[6,52] 0
z[6,53] 0
z[7,-1] 0
z[7,0] 0
z[7,1] 0
z[7,2] 0
z[7,3] 0
z[7,4] 0
z[7,5] 0
z[7,6] 0
z[7,7] 0
z[7,8] 0
z[7,9] 0
z[7,10] 0
z[7,11] 0
z[7,12] 0
z[7,13] 0
z[7,14] 0
z[7,15] 0
z[7,16] 1
z[7,17] 0
z[7,18] 0
z[7,19] 0
z[7,20] 0
z[7,21] 0
z[7,22] 0
z[7,23] 0
z[7,24] 0
z[7,25] 0
z[7,26] 0
z[7,27] 0
z[7,28] 0
z[7,29] 0
z[7,30] 0
z[7,31] 0
z[7,32] 0
z[7,33] 0
z[7,34] 0
z[7,35] 0
z[7,36] 0
z[7,37] 0
z[7,38] 0
z[7,39] 0
z[7,40] 0
z[7,41] 0
z[7,42] 0
z[7,43] 0
z[7,44] 0
z[7,45] 0
z[7,46] 0
z[7,47] 0
z[7,48] 0
z[7,49] 0
z[7,50] 0
z[7,51] 0
z[7,52] 0
z[7,53] 0
z[8,-1] 0
z[8,0] 0
z[8,1] 0
z[8,2] 0
z[8,3] 0
z[8,4] 0
z[8,5] 0
z[8,6] 0
z[8,7] 0
z[8,8] 0
z[8,9] 0
z[8,10] 0
z[8,11] 0
z[8,12] 0
z[8,13] 0
z[8,14] 0
z[8,15] 0
z[8,16] 0
z[8,17] 0
z[8,18] 0
z[8,19] 0
z[8,20] 0
z[8,21] 0
z[8,22] 0
z[8,23] 0
z[8,24] 1
z[8,25] 1
z[8,26] 0
z[8,27] 0
z[8,28] 0
z[8,29] 0
z[8,30] 0
z[8,31] 0
z[8,32] 0
z[8,33] 0
z[8,34] 0
z[8,35] 0
z[8,36] 0
z[8,37] 0
z[8,38] 0
z[8,39] 0
z[8,40] 0
z[8,41] 0
z[8,42] 0
z[8,43] 0
z[8,44] 0
z[8,45] 0
z[8,46] 0
z[8,47] 0
z[8,48] 0
z[8,49] 0
z[8,50] 0
z[8,51] 0
z[8,52] 0
z[8,53] 0
z[9,-1] 0
z[9,0] 0
z[9,1] 0
z[9,2] 0
z[9,3] 0
z[9,4] 0
z[9,5] 0
z[9,6] 0
z[9,7] 0
z[9,8] 0
z[9,9] 0
z[9,10] 0
z[9,11] 0
z[9,12] 0
z[9,13] 0
z[9,14] 0
z[9,15] 0
z[9,16] 0
z[9,17] 0
z[9,18] 0
z[9,19] 0
z[9,20] 0
z[9,21] 0
z[9,22] 0
z[9,23] 0
z[9,24] 0
z[9,25] 0
z[9,26] 0
z[9,27] 0
z[9,28] 1
z[9,29] 1
z[9,30] 1
z[9,31] 0
z[9,32] 0
z[9,33] 0
z[9,34] 0
z[9,35] 0
z[9,36] 0
z[9,37] 0
z[9,38] 0
z[9,39] 0
z[9,40] 0
z[9,41] 0
z[9,42] 0
z[9,43] 0
z[9,44] 0
z[9,45] 0
z[9,46] 0
z[9,47] 0
z[9,48] 0
z[9,49] 0
z[9,50] 0
z[9,51] 0
z[9,52] 0
z[9,53] 0
z[10,-1] 0
z[10,0] 0
z[10,1] 0
z[10,2] 0
z[10,3] 0
z[10,4] 0
z[10,5] 0
z[10,6] 0
z[10,7] 0
z[10,8] 0
z[10,9] 0
z[10,10] 0
z[10,11] 0
z[10,12] 0
z[10,13] 0
z[10,14] 0
z[10,15] 0
z[10,16] 0
z[10,17] 0
z[10,18] 0
z[10,19] 0
z[10,20] 0
z[10,21] 0
z[10,22] 0
z[10,23] 0
z[10,24] 0
z[10,25] 0
z[10,26] 0
z[10,27] 0
z[10,28] 0
z[10,29] 0
z[10,30] 0
z[10,31] 0
z[10,32] 0
z[10,33] 0
z[10,34] 0
z[10,35] 0
z[10,36] 0
z[10,37] 0
z[10,38] 0
z[10,39] 0
z[10,40] 1
z[10,41] 1
z[10,42] 1
z[10,43] 0
z[10,44] 0
z[10,45] 0
z[10,46] 0
z[10,47] 0
z[10,48] 0
z[10,49] 0
z[10,50] 0
z[10,51] 0
z[10,52] 0
z[10,53] 0
z[11,-1] 0
z[11,0] 0
z[11,1] 0
z[11,2] 0
z[11,3] 0
z[11,4] 0
z[11,5] 0
z[11,6] 0
z[11,7] 0
z[11,8] 0
z[11,9] 0
z[11,10] 0
z[11,11] 0
z[11,12] 0
z[11,13] 0
z[11,14] 0
z[11,15] 0
z[11,16] 0
z[11,17] 0
z[11,18] 0
z[11,19] 0
z[11,20] 0
z[11,21] 0
z[11,22] 0
z[11,23] 0
z[11,24] 0
z[11,25] 0
z[11,26] 0
z[11,27] 0
z[11,28] 0
z[11,29] 0
z[11,30] 0
z[11,31] 0
z[11,32] 0
z[11,33] 0
z[11,34] 0
z[11,35] 0
z[11,36] 0
z[11,37] 0
z[11,38] 0
z[11,39] 0
z[11,40] 0
z[11,41] 0
z[11,42] 0
z[11,43] 0
z[11,44] 1
z[11,45] 0
z[11,46] 0
z[11,47] 0
z[11,48] 0
z[11,49] 0
z[11,50] 0
z[11,51] 0
z[11,52] 0
z[11,53] 0
z[12,-1] 0
z[12,0] 0
z[12,1] 0
z[12,2] 0
z[12,3] 0
z[12,4] 0
z[12,5] 0
z[12,6] 0
z[12,7] 0
z[12,8] 0
z[12,9] 0
z[12,10] 0
z[12,11] 0
z[12,12] 0
z[12,13] 0
z[12,14] 0
z[12,15] 0
z[12,16] 0
z[12,17] 0
z[12,18] 0
z[12,19] 0
z[12,20] 0
z[12,21] 0
z[12,22] 0
z[12,23] 0
z[12,24] 0
z[12,25] 0
z[12,26] 0
z[12,27] 0
z[12,28] 0
z[12,29] 0
z[12,30] 0
z[12,31] 0
z[12,32] 0
z[12,33] 1
z[12,34] 0
z[12,35] 0
z[12,36] 0
z[12,37] 0
z[12,38] 0
z[12,39] 0
z[12,40] 0
z[12,41] 0
z[12,42] 0
z[12,43] 0
z[12,44] 0
z[12,45] 0
z[12,46] 0
z[12,47] 0
z[12,48] 0
z[12,49] 0
z[12,50] 0
z[12,51] 0
z[12,52] 0
z[12,53] 0
z[13,-1] 0
z[13,0] 0
z[13,1] 0
z[13,2] 0
z[13,3] 0
z[13,4] 0
z[13,5] 0
z[13,6] 0
z[13,7] 0
z[13,8] 0
z[13,9] 0
z[13,10] 0
z[13,11] 0
z[13,12] 0
z[13,13] 0
z[13,14] 0
z[13,15] 0
z[13,16] 0
z[13,17] 0
z[13,18] 0
z[13,19] 0
z[13,20] 0
z[13,21] 0
z[13,22] 0
z[13,23] 0
z[13,24] 0
z[13,25] 0
z[13,26] 0
z[13,27] 0
z[13,28] 0
z[13,29] 0
z[13,30] 0
z[13,31] 0
z[13,32] 0
z[13,33] 0
z[13,34] 0
z[13,35] 0
z[13,36] 0
z[13,37] 0
z[13,38] 0
z[13,39] 0
z[13,40] 0
z[13,41] 0
z[13,42] 0
z[13,43] 0
z[13,44] 1
z[13,45] 0
z[13,46] 0
z[13,47] 0
z[13,48] 0
z[13,49] 0
z[13,50] 0
z[13,51] 0
z[13,52] 0
z[13,53] 0
z[14,-1] 0
z[14,0] 0
z[14,1] 0
z[14,2] 0
z[14,3] 0
z[14,4] 0
z[14,5] 0
z[14,6] 0
z[14,7] 0
z[14,8] 0
z[14,9] 0
z[14,10] 0
z[14,11] 0
z[14,12] 0
z[14,13] 0
z[14,14] 0
z[14,15] 0
z[14,16] 0
z[14,17] 0
z[14,18] 0
z[14,19] 0
z[14,20] 0
z[14,21] 0
z[14,22] 0
z[14,23] 0
z[14,24] 0
z[14,25] 0
z[14,26] 0
z[14,27] 0
z[14,28] 1
z[14,29] 0
z[14,30] 0
z[14,31] 0
z[14,32] 0
z[14,33] 0
z[14,34] 0
z[14,35] 0
z[14,36] 0
z[14,37] 0
z[14,38] 0
z[14,39] 0
z[14,40] 0
z[14,41] 0
z[14,42] 0
z[14,43] 0
z[14,44] 0
z[14,45] 0
z[14,46] 0
z[14,47] 0
z[14,48] 0
z[14,49] 0
z[14,50] 0
z[14,51] 0
z[14,52] 0
z[14,53] 0
z[15,-1] 0
z[15,0] 0
z[15,1] 0
z[15,2] 0
z[15,3] 0
z[15,4] 0
z[15,5] 0
z[15,6] 0
z[15,7] 0
z[15,8] 0
z[15,9] 0
z[15,10] 0
z[15,11] 0
z[15,12] 0
z[15,13] 0
z[15,14] 0
z[15,15] 0
z[15,16] 0
z[15,17] 0
z[15,18] 0
z[15,19] 0
z[15,20] 0
z[15,21] 0
z[15,22] 0
z[15,23] 0
z[15,24] 0
z[15,25] 0
z[15,26] 0
z[15,27] 0
z[15,28] 0
z[15,29] 0
z[15,30] 0
z[15,31] 0
z[15,32] 0
z[15,33] 0
z[15,34] 0
z[15,35] 0
z[15,36] 0
z[15,37] 0
z[15,38] 0
z[15,39] 0
z[15,40] 0
z[15,41] 0
z[15,42] 0
z[15,43] 1
z[15,44] 1
z[15,45] 0
z[15,46] 0
z[15,47] 0
z[15,48] 0
z[15,49] 0
z[15,50] 0
z[15,51] 0
z[15,52] 0
z[15,53] 0
z[16,-1] 0
z[16,0] 0
z[16,1] 0
z[16,2] 0
z[16,3] 0
z[16,4] 0
z[16,5] 0
z[16,6] 0
z[16,7] 0
z[16,8] 0
z[16,9] 0
z[16,10] 0
z[16,11] 1
z[16,12] 0
z[16,13] 0
z[16,14] 0
z[16,15] 0
z[16,16] 0
z[16,17] 0
z[16,18] 0
z[16,19] 0
z[16,20] 0
z[16,21] 0
z[16,22] 0
z[16,23] 0
z[16,24] 0
z[16,25] 0
z[16,26] 0
z[16,27] 0
z[16,28] 0
z[16,29] 0
z[16,30] 0
z[16,31] 0
z[16,32] 0
z[16,33] 0
z[16,34] 0
z[16,35] 0
z[16,36] 0
z[16,37] 0
z[16,38] 0
z[16,39] 0
z[16,40] 0
z[16,41] 0
z[16,42] 0
z[16,43] 0
z[16,44] 0
z[16,45] 0
z[16,46] 0
z[16,47] 0
z[16,48] 0
z[16,49] 0
z[16,50] 0
z[16,51] 0
z[16,52] 0
z[16,53] 0
z[17,-1] 0
z[17,0] 0
z[17,1] 0
z[17,2] 0
z[17,3] 0
z[17,4] 0
z[17,5] 0
z[17,6] 0
z[17,7] 0
z[17,8] 0
z[17,9] 0
z[17,10] 0
z[17,11] 0
z[17,12] 0
z[17,13] 0
z[17,14] 0
z[17,15] 0
z[17,16] 0
z[17,17] 0
z[17,18] 0
z[17,19] 0
z[17,20] 0
z[17,21] 0
z[17,22] 0
z[17,23] 0
z[17,24] 0
z[17,25] 0
z[17,26] 0
z[17,27] 0
z[17,28] 0
z[17,29] 0
z[17,30] 0
z[17,31] 0
z[17,32] 0
z[17,33] 0
z[17,34] 0
z[17,35] 0
z[17,36] 0
z[17,37] 0
z[17,38] 0
z[17,39] 0
z[17,40] 0
z[17,41] 0
z[17,42] 0
z[17,43] 0
z[17,44] 1
z[17,45] 1
z[17,46] 0
z[17,47] 0
z[17,48] 0
z[17,49] 0
z[17,50] 0
z[17,51] 0
z[17,52] 0
z[17,53] 0
z[18,-1] 0
z[18,0] 0
z[18,1] 0
z[18,2] 0
z[18,3] 0
z[18,4] 0
z[18,5] 0
z[18,6] 0
z[18,7] 0
z[18,8] 0
z[18,9] 0
z[18,10] 0
z[18,11] 0
z[18,12] 0
z[18,13] 0
z[18,14] 0
z[18,15] 0
z[18,16] 0
z[18,17] 0
z[18,18] 0
z[18,19] 0
z[18,20] 0
z[18,21] 0
z[18,22] 0
z[18,23] 0
z[18,24] 0
z[18,25] 0
z[18,26] 0
z[18,27] 0
z[18,28] 0
z[18,29] 0
z[18,30] 0
z[18,31] 0
z[18,32] 0
z[18,33] 0
z[18,34] 0
z[18,35] 0
z[18,36] 0
z[18,37] 0
z[18,38] 0
z[18,39] 0
z[18,40] 0
z[18,41] 0
z[18,42] 0
z[18,43] 0
z[18,44] 1
z[18,45] 0
z[18,46] 0
z[18,47] 0
z[18,48] 0
z[18,49] 0
z[18,50] 0
z[18,51] 0
z[18,52] 0
z[18,53] 0
z[19,-1] 0
z[19,0] 0
z[19,1] 0
z[19,2] 0
z[19,3] 0
z[19,4] 0
z[19,5] 0
z[19,6] 0
z[19,7] 0
z[19,8] 0
z[19,9] 0
z[19,10] 0
z[19,11] 0
z[19,12] 0
z[19,13] 0
z[19,14] 0
z[19,15] 0
z[19,16] 0
z[19,17] 0
z[19,18] 0
z[19,19] 0
z[19,20] 0
z[19,21] 0
z[19,22] 0
z[19,23] 0
z[19,24] 0
z[19,25] 0
z[19,26] 0
z[19,27] 0
z[19,28] 0
z[19,29] 0
z[19,30] 0
z[19,31] 0
z[19,32] 0
z[19,33] 0
z[19,34] 0
z[19,35] 0
z[19,36] 0
z[19,37] 0
z[19,38] 0
z[19,39] 0
z[19,40] 0
z[19,41] 0
z[19,42] 0
z[19,43] 0
z[19,44] 0
z[19,45] 0
z[19,46] 0
z[19,47] 0
z[19,48] 0
z[19,49] 1
z[19,50] 1
z[19,51] 1
z[19,52] 1
z[19,53] 0
z[20,-1] 0
z[20,0] 0
z[20,1] 0
z[20,2] 0
z[20,3] 0
z[20,4] 0
z[20,5] 0
z[20,6] 0
z[20,7] 0
z[20,8] 0
z[20,9] 0
z[20,10] 0
z[20,11] 0
z[20,12] 0
z[20,13] 0
z[20,14] 0
z[20,15] 0
z[20,16] 0
z[20,17] 0
z[20,18] 0
z[20,19] 0
z[20,20] 0
z[20,21] 0
z[20,22] 0
z[20,23] 0
z[20,24] 0
z[20,25] 0
z[20,26] 0
z[20,27] 0
z[20,28] 0
z[20,29] 0
z[20,30] 0
z[20,31] 0
z[20,32] 0
z[20,33] 0
z[20,34] 0
z[20,35] 0
z[20,36] 0
z[20,37] 0
z[20,38] 0
z[20,39] 0
z[20,40] 0
z[20,41] 0
z[20,42] 0
z[20,43] 0
z[20,44] 0
z[20,45] 1
z[20,46] 0
z[20,47] 0
z[20,48] 0
z[20,49] 0
z[20,50] 0
z[20,51] 0
z[20,52] 0
z[20,53] 0
z[21,-1] 0
z[21,0] 0
z[21,1] 0
z[21,2] 0
z[21,3] 0
z[21,4] 0
z[21,5] 0
z[21,6] 0
z[21,7] 0
z[21,8] 0
z[21,9] 0
z[21,10] 0
z[21,11] 0
z[21,12] 0
z[21,13] 0
z[21,14] 0
z[21,15] 0
z[21,16] 0
z[21,17] 0
z[21,18] 0
z[21,19] 0
z[21,20] 0
z[21,21] 0
z[21,22] 0
z[21,23] 0
z[21,24] 0
z[21,25] 0
z[21,26] 0
z[21,27] 0
z[21,28] 0
z[21,29] 0
z[21,30] 0
z[21,31] 0
z[21,32] 0
z[21,33] 0
z[21,34] 0
z[21,35] 0
z[21,36] 0
z[21,37] 0
z[21,38] 0
z[21,39] 0
z[21,40] 0
z[21,41] 0
z[21,42] 0
z[21,43] 0
z[21,44] 0
z[21,45] 1
z[21,46] 0
z[21,47] 0
z[21,48] 0
z[21,49] 0
z[21,50] 0
z[21,51] 0
z[21,52] 0
z[21,53] 0
z[22,-1] 0
z[22,0] 0
z[22,1] 0
z[22,2] 0
z[22,3] 0
z[22,4] 0
z[22,5] 0
z[22,6] 0
z[22,7] 0
z[22,8] 0
z[22,9] 0
z[22,10] 0
z[22,11] 0
z[22,12] 0
z[22,13] 0
z[22,14] 0
z[22,15] 0
z[22,16] 0
z[22,17] 0
z[22,18] 0
z[22,19] 0
z[22,20] 0
z[22,21] 0
z[22,22] 0
z[22,23] 0
z[22,24] 0
z[22,25] 0
z[22,26] 0
z[22,27] 0
z[22,28] 0
z[22,29] 0
z[22,30] 0
z[22,31] 0
z[22,32] 0
z[22,33] 0
z[22,34] 0
z[22,35] 0
z[22,36] 0
z[22,37] 0
z[22,38] 0
z[22,39] 0
z[22,40] 0
z[22,41] 0
z[22,42] 0
z[22,43] 0
z[22,44] 0
z[22,45] 0
z[22,46] 0
z[22,47] 1
z[22,48] 0
z[22,49] 0
z[22,50] 0
z[22,51] 0
z[22,52] 0
z[22,53] 0
z[23,-1] 0
z[23,0] 0
z[23,1] 0
z[23,2] 0
z[23,3] 0
z[23,4] 0
z[23,5] 0
z[23,6] 0
z[23,7] 0
z[23,8] 0
z[23,9] 0
z[23,10] 0
z[23,11] 0
z[23,12] 0
z[23,13] 0
z[23,14] 0
z[23,15] 0
z[23,16] 0
z[23,17] 0
z[23,18] 0
z[23,19] 0
z[23,20] 0
z[23,21] 0
z[23,22] 0
z[23,23] 0
z[23,24] 0
z[23,25] 0
z[23,26] 0
z[23,27] 0
z[23,28] 0
z[23,29] 0
z[23,30] 0
z[23,31] 0
z[23,32] 0
z[23,33] 0
z[23,34] 0
z[23,35] 0
z[23,36] 0
z[23,37] 0
z[23,38] 0
z[23,39] 0
z[23,40] 0
z[23,41] 0
z[23,42] 0
z[23,43] 0
z[23,44] 0
z[23,45] 0
z[23,46] 0
z[23,47] 0
z[23,48] 0
z[23,49] 1
z[23,50] 1
z[23,51] 0
z[23,52] 0
z[23,53] 0
z[24,-1] 0
z[24,0] 0
z[24,1] 0
z[24,2] 0
z[24,3] 0
z[24,4] 0
z[24,5] 0
z[24,6] 0
z[24,7] 0
z[24,8] 0
z[24,9] 0
z[24,10] 0
z[24,11] 0
z[24,12] 0
z[24,13] 0
z[24,14] 0
z[24,15] 0
z[24,16] 0
z[24,17] 0
z[24,18] 0
z[24,19] 0
z[24,20] 0
z[24,21] 0
z[24,22] 0
z[24,23] 0
z[24,24] 0
z[24,25] 0
z[24,26] 0
z[24,27] 0
z[24,28] 0
z[24,29] 0
z[24,30] 0
z[24,31] 0
z[24,32] 0
z[24,33] 0
z[24,34] 0
z[24,35] 0
z[24,36] 0
z[24,37] 0
z[24,38] 0
z[24,39] 0
z[24,40] 0
z[24,41] 0
z[24,42] 0
z[24,43] 0
z[24,44] 0
z[24,45] 0
z[24,46] 0
z[24,47] 0
z[24,48] 0
z[24,49] 0
z[24,50] 0
z[24,51] 1
z[24,52] 0
z[24,53] 0
z[25,-1] 0
z[25,0] 0
z[25,1] 0
z[25,2] 0
z[25,3] 0
z[25,4] 0
z[25,5] 0
z[25,6] 0
z[25,7] 0
z[25,8] 0
z[25,9] 0
z[25,10] 0
z[25,11] 0
z[25,12] 0
z[25,13] 0
z[25,14] 0
z[25,15] 0
z[25,16] 0
z[25,17] 0
z[25,18] 0
z[25,19] 0
z[25,20] 0
z[25,21] 0
z[25,22] 0
z[25,23] 0
z[25,24] 0
z[25,25] 0
z[25,26] 0
z[25,27] 0
z[25,28] 0
z[25,29] 0
z[25,30] 0
z[25,31] 0
z[25,32] 0
z[25,33] 0
z[25,34] 0
z[25,35] 0
z[25,36] 0
z[25,37] 0
z[25,38] 0
z[25,39] 0
z[25,40] 0
z[25,41] 0
z[25,42] 0
z[25,43] 0
z[25,44] 0
z[25,45] 0
z[25,46] 0
z[25,47] 1
z[25,48] 0
z[25,49] 0
z[25,50] 0
z[25,51] 0
z[25,52] 0
z[25,53] 0
z[26,-1] 0
z[26,0] 0
z[26,1] 0
z[26,2] 0
z[26,3] 0
z[26,4] 0
z[26,5] 0
z[26,6] 0
z[26,7] 0
z[26,8] 0
z[26,9] 0
z[26,10] 0
z[26,11] 0
z[26,12] 0
z[26,13] 0
z[26,14] 0
z[26,15] 0
z[26,16] 0
z[26,17] 0
z[26,18] 0
z[26,19] 0
z[26,20] 0
z[26,21] 0
z[26,22] 0
z[26,23] 0
z[26,24] 0
z[26,25] 0
z[26,26] 0
z[26,27] 0
z[26,28] 0
z[26,29] 0
z[26,30] 0
z[26,31] 0
z[26,32] 0
z[26,33] 0
z[26,34] 0
z[26,35] 0
z[26,36] 0
z[26,37] 0
z[26,38] 0
z[26,39] 0
z[26,40] 0
z[26,41] 0
z[26,42] 0
z[26,43] 0
z[26,44] 0
z[26,45] 0
z[26,46] 0
z[26,47] 0
z[26,48] 1
z[26,49] 1
z[26,50] 0
z[26,51] 0
z[26,52] 0
z[26,53] 0
z[27,-1] 0
z[27,0] 0
z[27,1] 0
z[27,2] 0
z[27,3] 0
z[27,4] 0
z[27,5] 0
z[27,6] 0
z[27,7] 0
z[27,8] 0
z[27,9] 0
z[27,10] 0
z[27,11] 0
z[27,12] 0
z[27,13] 0
z[27,14] 0
z[27,15] 0
z[27,16] 0
z[27,17] 0
z[27,18] 0
z[27,19] 0
z[27,20] 0
z[27,21] 0
z[27,22] 0
z[27,23] 0
z[27,24] 0
z[27,25] 0
z[27,26] 0
z[27,27] 0
z[27,28] 0
z[27,29] 0
z[27,30] 0
z[27,31] 0
z[27,32] 0
z[27,33] 0
z[27,34] 0
z[27,35] 0
z[27,36] 0
z[27,37] 0
z[27,38] 0
z[27,39] 0
z[27,40] 0
z[27,41] 0
z[27,42] 0
z[27,43] 0
z[27,44] 0
z[27,45] 0
z[27,46] 0
z[27,47] 1
z[27,48] 0
z[27,49] 0
z[27,50] 0
z[27,51] 0
z[27,52] 0
z[27,53] 0
z[28,-1] 0
z[28,0] 0
z[28,1] 0
z[28,2] 0
z[28,3] 0
z[28,4] 0
z[28,5] 0
z[28,6] 0
z[28,7] 0
z[28,8] 0
z[28,9] 0
z[28,10] 0
z[28,11] 0
z[28,12] 0
z[28,13] 0
z[28,14] 0
z[28,15] 0
z[28,16] 0
z[28,17] 0
z[28,18] 0
z[28,19] 0
z[28,20] 0
z[28,21] 0
z[28,22] 0
z[28,23] 0
z[28,24] 0
z[28,25] 0
z[28,26] 0
z[28,27] 0
z[28,28] 0
z[28,29] 0
z[28,30] 0
z[28,31] 0
z[28,32] 0
z[28,33] 0
z[28,34] 0
z[28,35] 0
z[28,36] 0
z[28,37] 0
z[28,38] 0
z[28,39] 0
z[28,40] 0
z[28,41] 0
z[28,42] 0
z[28,43] 0
z[28,44] 0
z[28,45] 0
z[28,46] 0
z[28,47] 0
z[28,48] 0
z[28,49] 1
z[28,50] 1
z[28,51] 1
z[28,52] 1
z[28,53] 0
z[29,-1] 0
z[29,0] 0
z[29,1] 0
z[29,2] 0
z[29,3] 0
z[29,4] 0
z[29,5] 0
z[29,6] 0
z[29,7] 0
z[29,8] 0
z[29,9] 0
z[29,10] 0
z[29,11] 0
z[29,12] 0
z[29,13] 0
z[29,14] 0
z[29,15] 0
z[29,16] 0
z[29,17] 0
z[29,18] 0
z[29,19] 0
z[29,20] 0
z[29,21] 0
z[29,22] 0
z[29,23] 0
z[29,24] 0
z[29,25] 0
z[29,26] 0
z[29,27] 0
z[29,28] 0
z[29,29] 0
z[29,30] 0
z[29,31] 0
z[29,32] 0
z[29,33] 0
z[29,34] 0
z[29,35] 0
z[29,36] 0
z[29,37] 0
z[29,38] 0
z[29,39] 0
z[29,40] 0
z[29,41] 0
z[29,42] 0
z[29,43] 0
z[29,44] 0
z[29,45] 0
z[29,46] 0
z[29,47] 0
z[29,48] 0
z[29,49] 0
z[29,50] 0
z[29,51] 0
z[29,52] 0
z[29,53] 1
z[30,-1] 0
z[30,0] 0
z[30,1] 0
z[30,2] 0
z[30,3] 0
z[30,4] 0
z[30,5] 0
z[30,6] 0
z[30,7] 0
z[30,8] 0
z[30,9] 0
z[30,10] 0
z[30,11] 0
z[30,12] 0
z[30,13] 0
z[30,14] 0
z[30,15] 0
z[30,16] 0
z[30,17] 0
z[30,18] 0
z[30,19] 0
z[30,20] 0
z[30,21] 0
z[30,22] 0
z[30,23] 0
z[30,24] 0
z[30,25] 0
z[30,26] 0
z[30,27] 0
z[30,28] 0
z[30,29] 0
z[30,30] 0
z[30,31] 0
z[30,32] 0
z[30,33] 0
z[30,34] 0
z[30,35] 0
z[30,36] 0
z[30,37] 0
z[30,38] 0
z[30,39] 0
z[30,40] 0
z[30,41] 0
z[30,42] 0
z[30,43] 0
z[30,44] 0
z[30,45] 0
z[30,46] 0
z[30,47] 0
z[30,48] 0
z[30,49] 0
z[30,50] 0
z[30,51] 0
z[30,52] 0
z[30,53] 1
z[31,-1] 0
z[31,0] 0
z[31,1] 0
z[31,2] 0
z[31,3] 0
z[31,4] 0
z[31,5] 0
z[31,6] 0
z[31,7] 0
z[31,8] 0
z[31,9] 0
z[31,10] 0
z[31,11] 0
z[31,12] 0
z[31,13] 0
z[31,14] 0
z[31,15] 0
z[31,16] 0
z[31,17] 0
z[31,18] 0
z[31,19] 0
z[31,20] 0
z[31,21] 0
z[31,22] 0
z[31,23] 0
z[31,24] 0
z[31,25] 0
z[31,26] 0
z[31,27] 0
z[31,28] 0
z[31,29] 0
z[31,30] 0
z[31,31] 0
z[31,32] 0
z[31,33] 0
z[31,34] 0
z[31,35] 0
z[31,36] 0
z[31,37] 0
z[31,38] 0
z[31,39] 0
z[31,40] 0
z[31,41] 0
z[31,42] 0
z[31,43] 0
z[31,44] 0
z[31,45] 0
z[31,46] 0
z[31,47] 0
z[31,48] 0
z[31,49] 0
z[31,50] 0
z[31,51] 0
z[31,52] 0
z[31,53] 1
a[1,0] 0
a[1,1] 3
a[1,2] 3
a[1,3] 3
a[1,4] 3
a[1,5] 3
a[1,6] 3
a[1,7] 3
a[1,8] 3
a[1,9] 3
a[1,10] 3
a[1,11] 3
a[1,12] 3
a[1,13] 3
a[1,14] 3
a[1,15] 3
a[1,16] 3
a[1,17] 3
a[1,18] 3
a[1,19] 3
a[1,20] 3
a[1,21] 3
a[1,22] 3
a[1,23] 3
a[1,24] 3
a[1,25] 3
a[1,26] 3
a[1,27] 3
a[1,28] 3
a[1,29] 3
a[1,30] 3
a[1,31] 3
a[1,32] 3
a[1,33] 3
a[1,34] 3
a[1,35] 3
a[1,36] 3
a[1,37] 3
a[1,38] 3
a[1,39] 3
a[1,40] 3
a[1,41] 3
a[1,42] 3
a[1,43] 3
a[1,44] 3
a[1,45] 3
a[1,46] 3
a[1,47] 3
a[1,48] 3
a[1,49] 3
a[1,50] 3
a[1,51] 3
a[1,52] 3
a[1,53] 3
a[2,0] 0
a[2,1] 8
a[2,2] 8
a[2,3] 8
a[2,4] 8
a[2,5] 8
a[2,6] 8
a[2,7] 8
a[2,8] 8
a[2,9] 8
a[2,10] 8
a[2,11] 8
a[2,12] 8
a[2,13] 8
a[2,14] 8
a[2,15] 8
a[2,16] 8
a[2,17] 8
a[2,18] 8
a[2,19] 8
a[2,20] 8
a[2,21] 8
a[2,22] 8
a[2,23] 8
a[2,24] 8
a[2,25] 8
a[2,26] 8
a[2,27] 8
a[2,28] 8
a[2,29] 8
a[2,30] 8
a[2,31] 8
a[2,32] 8
a[2,33] 8
a[2,34] 8
a[2,35] 8
a[2,36] 8
a[2,37] 8
a[2,38] 8
a[2,39] 8
a[2,40] 8
a[2,41] 8
a[2,42] 8
a[2,43] 8
a[2,44] 8
a[2,45] 8
a[2,46] 8
a[2,47] 8
a[2,48] 8
a[2,49] 8
a[2,50] 8
a[2,51] 8
a[2,52] 8
a[2,53] 8
a[3,0] 0
a[3,1] 5
a[3,2] 5
a[3,3] 5
a[3,4] 5
a[3,5] 5
a[3,6] 5
a[3,7] 5
a[3,8] 5
a[3,9] 5
a[3,10] 5
a[3,11] 5
a[3,12] 5
a[3,13] 5
a[3,14] 5
a[3,15] 5
a[3,16] 5
a[3,17] 5
a[3,18] 5
a[3,19] 5
a[3,20] 5
a[3,21] 5
a[3,22] 5
a[3,23] 5
a[3,24] 5
a[3,25] 5
a[3,26] 5
a[3,27] 5
a[3,28] 5
a[3,29] 5
a[3,30] 5
a[3,31] 5
a[3,32] 5
a[3,33] 5
a[3,34] 5
a[3,35] 5
a[3,36] 5
a[3,37] 5
a[3,38] 5
a[3,39] 5
a[3,40] 5
a[3,41] 5
a[3,42] 5
a[3,43] 5
a[3,44] 5
a[3,45] 5
a[3,46] 5
a[3,47] 5
a[3,48] 5
a[3,49] 5
a[3,50] 5
a[3,51] 5
a[3,52] 5
a[3,53] 5
a[4,0] 0
a[4,1] 0
a[4,2] 0
a[4,3] 0
a[4,4] 0
a[4,5] 0
a[4,6] 0
a[4,7] 0
a[4,8] 0
a[4,9] 0
a[4,10] 0
a[4,11] 0
a[4,12] 0
a[4,13] 0
a[4,14] 0
a[4,15] 0
a[4,16] 0
a[4,17] 0
a[4,18] 0
a[4,19] 0
a[4,20] 0
a[4,21] 0
a[4,22] 0
a[4,23] 0
a[4,24] 0
a[4,25] 0
a[4,26] 2
a[4,27] 2
a[4,28] 7
a[4,29] 7
a[4,30] 7
a[4,31] 7
a[4,32] 7
a[4,33] 7
a[4,34] 7
a[4,35] 7
a[4,36] 7
a[4,37] 7
a[4,38] 7
a[4,39] 7
a[4,40] 7
a[4,41] 7
a[4,42] 7
a[4,43] 7
a[4,44] 7
a[4,45] 7
a[4,46] 7
a[4,47] 7
a[4,48] 7
a[4,49] 7
a[4,50] 7
a[4,51] 7
a[4,52] 7
a[4,53] 7
a[5,0] 0
a[5,1] 0
a[5,2] 0
a[5,3] 0
a[5,4] 0
a[5,5] 0
a[5,6] 0
a[5,7] 0
a[5,8] 0
a[5,9] 0
a[5,10] 0
a[5,11] 0
a[5,12] 0
a[5,13] 0
a[5,14] 0
a[5,15] 0
a[5,16] 0
a[5,17] 0
a[5,18] 0
a[5,19] 0
a[5,20] 0
a[5,21] 0
a[5,22] 0
a[5,23] 0
a[5,24] 0
a[5,25] 0
a[5,26] 0
a[5,27] 0
a[5,28] 1
a[5,29] 1
a[5,30] 1
a[5,31] 1
a[5,32] 1
a[5,33] 1
a[5,34] 1
a[5,35] 1
a[5,36] 1
a[5,37] 1
a[5,38] 1
a[5,39] 1
a[5,40] 1
a[5,41] 1
a[5,42] 1
a[5,43] 1
a[5,44] 1
a[5,45] 1
a[5,46] 1
a[5,47] 1
a[5,48] 1
a[5,49] 1
a[5,50] 1
a[5,51] 1
a[5,52] 1
a[5,53] 1
a[6,0] 0
a[6,1] 0
a[6,2] 0
a[6,3] 0
a[6,4] 0
a[6,5] 0
a[6,6] 0
a[6,7] 0
a[6,8] 0
a[6,9] 0
a[6,10] 0
a[6,11] 0
a[6,12] 0
a[6,13] 0
a[6,14] 0
a[6,15] 0
a[6,16] 0
a[6,17] 0
a[6,18] 0
a[6,19] 0
a[6,20] 0
a[6,21] 0
a[6,22] 0
a[6,23] 0
a[6,24] 0
a[6,25] 0
a[6,26] 0
a[6,27] 0
a[6,28] 0
a[6,29] 0
a[6,30] 0
a[6,31] 0
a[6,32] 0
a[6,33] 0
a[6,34] 0
a[6,35] 0
a[6,36] 0
a[6,37] 0
a[6,38] 0
a[6,39] 0
a[6,40] 0
a[6,41] 3
a[6,42] 3
a[6,43] 7
a[6,44] 8
a[6,45] 8
a[6,46] 8
a[6,47] 8
a[6,48] 8
a[6,49] 8
a[6,50] 8
a[6,51] 8
a[6,52] 8
a[6,53] 8
a[7,0] 0
a[7,1] 0
a[7,2] 0
a[7,3] 0
a[7,4] 0
a[7,5] 0
a[7,6] 0
a[7,7] 0
a[7,8] 0
a[7,9] 0
a[7,10] 0
a[7,11] 0
a[7,12] 0
a[7,13] 0
a[7,14] 0
a[7,15] 0
a[7,16] 0
a[7,17] 10
a[7,18] 10
a[7,19] 10
a[7,20] 10
a[7,21] 10
a[7,22] 10
a[7,23] 10
a[7,24] 10
a[7,25] 10
a[7,26] 10
a[7,27] 10
a[7,28] 10
a[7,29] 10
a[7,30] 10
a[7,31] 10
a[7,32] 10
a[7,33] 10
a[7,34] 10
a[7,35] 10
a[7,36] 10
a[7,37] 10
a[7,38] 10
a[7,39] 10
a[7,40] 10
a[7,41] 10
a[7,42] 10
a[7,43] 10
a[7,44] 10
a[7,45] 10
a[7,46] 10
a[7,47] 10
a[7,48] 10
a[7,49] 10
a[7,50] 10
a[7,51] 10
a[7,52] 10
a[7,53] 10
a[8,0] 0
a[8,1] 0
a[8,2] 0
a[8,3] 0
a[8,4] 0
a[8,5] 0
a[8,6] 0
a[8,7] 0
a[8,8] 0
a[8,9] 0
a[8,10] 0
a[8,11] 0
a[8,12] 0
a[8,13] 0
a[8,14] 0
a[8,15] 0
a[8,16] 0
a[8,17] 0
a[8,18] 0
a[8,19] 0
a[8,20] 0
a[8,21] 0
a[8,22] 0
a[8,23] 0
a[8,24] 0
a[8,25] 0
a[8,26] 2
a[8,27] 2
a[8,28] 2
a[8,29] 2
a[8,30] 2
a[8,31] 2
a[8,32] 2
a[8,33] 2
a[8,34] 2
a[8,35] 2
a[8,36] 2
a[8,37] 2
a[8,38] 2
a[8,39] 2
a[8,40] 2
a[8,41] 2
a[8,42] 2
a[8,43] 2
a[8,44] 2
a[8,45] 2
a[8,46] 2
a[8,47] 2
a[8,48] 2
a[8,49] 2
a[8,50] 2
a[8,51] 2
a[8,52] 2
a[8,53] 2
a[9,0] 0
a[9,1] 0
a[9,2] 0
a[9,3] 0
a[9,4] 0
a[9,5] 0
a[9,6] 0
a[9,7] 0
a[9,8] 0
a[9,9] 0
a[9,10] 0
a[9,11] 0
a[9,12] 0
a[9,13] 0
a[9,14] 0
a[9,15] 0
a[9,16] 0
a[9,17] 0
a[9,18] 0
a[9,19] 0
a[9,20] 0
a[9,21] 0
a[9,22] 0
a[9,23] 0
a[9,24] 0
a[9,25] 0
a[9,26] 0
a[9,27] 0
a[9,28] 1
a[9,29] 1
a[9,30] 8
a[9,31] 8
a[9,32] 8
a[9,33] 8
a[9,34] 8
a[9,35] 8
a[9,36] 8
a[9,37] 8
a[9,38] 8
a[9,39] 8
a[9,40] 8
a[9,41] 8
a[9,42] 8
a[9,43] 8
a[9,44] 8
a[9,45] 8
a[9,46] 8
a[9,47] 8
a[9,48] 8
a[9,49] 8
a[9,50] 8
a[9,51] 8
a[9,52] 8
a[9,53] 8
a[10,0] 0
a[10,1] 0
a[10,2] 0
a[10,3] 0
a[10,4] 0
a[10,5] 0
a[10,6] 0
a[10,7] 0
a[10,8] 0
a[10,9] 0
a[10,10] 0
a[10,11] 0
a[10,12] 0
a[10,13] 0
a[10,14] 0
a[10,15] 0
a[10,16] 0
a[10,17] 0
a[10,18] 0
a[10,19] 0
a[10,20] 0
a[10,21] 0
a[10,22] 0
a[10,23] 0
a[10,24] 0
a[10,25] 0
a[10,26] 0
a[10,27] 0
a[10,28] 0
a[10,29] 0
a[10,30] 0
a[10,31] 0
a[10,32] 0
a[10,33] 0
a[10,34] 0
a[10,35] 0
a[10,36] 0
a[10,37] 0
a[10,38] 0
a[10,39] 0
a[10,40] 0
a[10,41] 3
a[10,42] 3
a[10,43] 10
a[10,44] 10
a[10,45] 10
a[10,46] 10
a[10,47] 10
a[10,48] 10
a[10,49] 10
a[10,50] 10
a[10,51] 10
a[10,52] 10
a[10,53] 10
a[11,0] 0
a[11,1] 0
a[11,2] 0
a[11,3] 0
a[11,4] 0
a[11,5] 0
a[11,6] 0
a[11,7] 0
a[11,8] 0
a[11,9] 0
a[11,10] 0
a[11,11] 0
a[11,12] 0
a[11,13] 0
a[11,14] 0
a[11,15] 0
a[11,16] 0
a[11,17] 0
a[11,18] 0
a[11,19] 0
a[11,20] 0
a[11,21] 0
a[11,22] 0
a[11,23] 0
a[11,24] 0
a[11,25] 0
a[11,26] 0
a[11,27] 0
a[11,28] 0
a[11,29] 0
a[11,30] 0
a[11,31] 0
a[11,32] 0
a[11,33] 0
a[11,34] 0
a[11,35] 0
a[11,36] 0
a[11,37] 0
a[11,38] 0
a[11,39] 0
a[11,40] 0
a[11,41] 0
a[11,42] 0
a[11,43] 0
a[11,44] 3
a[11,45] 5
a[11,46] 5
a[11,47] 5
a[11,48] 5
a[11,49] 5
a[11,50] 5
a[11,51] 5
a[11,52] 5
a[11,53] 5
a[12,0] 0
a[12,1] 0
a[12,2] 0
a[12,3] 0
a[12,4] 0
a[12,5] 0
a[12,6] 0
a[12,7] 0
a[12,8] 0
a[12,9] 0
a[12,10] 0
a[12,11] 0
a[12,12] 0
a[12,13] 0
a[12,14] 0
a[12,15] 0
a[12,16] 0
a[12,17] 0
a[12,18] 0
a[12,19] 0
a[12,20] 0
a[12,21] 0
a[12,22] 0
a[12,23] 0
a[12,24] 0
a[12,25] 0
a[12,26] 0
a[12,27] 0
a[12,28] 0
a[12,29] 0
a[12,30] 0
a[12,31] 0
a[12,32] 0
a[12,33] 0
a[12,34] 1
a[12,35] 1
a[12,36] 1
a[12,37] 1
a[12,38] 1
a[12,39] 1
a[12,40] 1
a[12,41] 1
a[12,42] 1
a[12,43] 1
a[12,44] 1
a[12,45] 1
a[12,46] 1
a[12,47] 1
a[12,48] 1
a[12,49] 1
a[12,50] 1
a[12,51] 1
a[12,52] 1
a[12,53] 1
a[13,0] 0
a[13,1] 0
a[13,2] 0
a[13,3] 0
a[13,4] 0
a[13,5] 0
a[13,6] 0
a[13,7] 0
a[13,8] 0
a[13,9] 0
a[13,10] 0
a[13,11] 0
a[13,12] 0
a[13,13] 0
a[13,14] 0
a[13,15] 0
a[13,16] 0
a[13,17] 0
a[13,18] 0
a[13,19] 0
a[13,20] 0
a[13,21] 0
a[13,22] 0
a[13,23] 0
a[13,24] 0
a[13,25] 0
a[13,26] 0
a[13,27] 0
a[13,28] 0
a[13,29] 0
a[13,30] 0
a[13,31] 0
a[13,32] 0
a[13,33] 0
a[13,34] 0
a[13,35] 0
a[13,36] 0
a[13,37] 0
a[13,38] 0
a[13,39] 0
a[13,40] 0
a[13,41] 0
a[13,42] 0
a[13,43] 0
a[13,44] 1
a[13,45] 4
a[13,46] 4
a[13,47] 4
a[13,48] 4
a[13,49] 4
a[13,50] 4
a[13,51] 4
a[13,52] 4
a[13,53] 4
a[14,0] 0
a[14,1] 0
a[14,2] 0
a[14,3] 0
a[14,4] 0
a[14,5] 0
a[14,6] 0
a[14,7] 0
a[14,8] 0
a[14,9] 0
a[14,10] 0
a[14,11] 0
a[14,12] 0
a[14,13] 0
a[14,14] 0
a[14,15] 0
a[14,16] 0
a[14,17] 0
a[14,18] 0
a[14,19] 0
a[14,20] 0
a[14,21] 0
a[14,22] 0
a[14,23] 0
a[14,24] 0
a[14,25] 0
a[14,26] 0
a[14,27] 0
a[14,28] 1
a[14,29] 1
a[14,30] 1
a[14,31] 1
a[14,32] 1
a[14,33] 1
a[14,34] 1
a[14,35] 1
a[14,36] 1
a[14,37] 1
a[14,38] 1
a[14,39] 1
a[14,40] 1
a[14,41] 1
a[14,42] 1
a[14,43] 1
a[14,44] 1
a[14,45] 1
a[14,46] 1
a[14,47] 1
a[14,48] 1
a[14,49] 1
a[14,50] 1
a[14,51] 1
a[14,52] 1
a[14,53] 1
a[15,0] 0
a[15,1] 0
a[15,2] 0
a[15,3] 0
a[15,4] 0
a[15,5] 0
a[15,6] 0
a[15,7] 0
a[15,8] 0
a[15,9] 0
a[15,10] 0
a[15,11] 0
a[15,12] 0
a[15,13] 0
a[15,14] 0
a[15,15] 0
a[15,16] 0
a[15,17] 0
a[15,18] 0
a[15,19] 0
a[15,20] 0
a[15,21] 0
a[15,22] 0
a[15,23] 0
a[15,24] 0
a[15,25] 0
a[15,26] 0
a[15,27] 0
a[15,28] 0
a[15,29] 0
a[15,30] 0
a[15,31] 0
a[15,32] 0
a[15,33] 0
a[15,34] 0
a[15,35] 0
a[15,36] 0
a[15,37] 0
a[15,38] 0
a[15,39] 0
a[15,40] 0
a[15,41] 0
a[15,42] 0
a[15,43] 4
a[15,44] 5
a[15,45] 7
a[15,46] 7
a[15,47] 7
a[15,48] 7
a[15,49] 7
a[15,50] 7
a[15,51] 7
a[15,52] 7
a[15,53] 7
a[16,0] 0
a[16,1] 0
a[16,2] 0
a[16,3] 0
a[16,4] 0
a[16,5] 0
a[16,6] 0
a[16,7] 0
a[16,8] 0
a[16,9] 0
a[16,10] 0
a[16,11] 0
a[16,12] 6
a[16,13] 6
a[16,14] 6
a[16,15] 6
a[16,16] 6
a[16,17] 6
a[16,18] 6
a[16,19] 6
a[16,20] 6
a[16,21] 6
a[16,22] 6
a[16,23] 6
a[16,24] 6
a[16,25] 6
a[16,26] 6
a[16,27] 6
a[16,28] 6
a[16,29] 6
a[16,30] 6
a[16,31] 6
a[16,32] 6
a[16,33] 6
a[16,34] 6
a[16,35] 6
a[16,36] 6
a[16,37] 6
a[16,38] 6
a[16,39] 6
a[16,40] 6
a[16,41] 6
a[16,42] 6
a[16,43] 6
a[16,44] 6
a[16,45] 6
a[16,46] 6
a[16,47] 6
a[16,48] 6
a[16,49] 6
a[16,50] 6
a[16,51] 6
a[16,52] 6
a[16,53] 6
a[17,0] 0
a[17,1] 0
a[17,2] 0
a[17,3] 0
a[17,4] 0
a[17,5] 0
a[17,6] 0
a[17,7] 0
a[17,8] 0
a[17,9] 0
a[17,10] 0
a[17,11] 0
a[17,12] 0
a[17,13] 0
a[17,14] 0
a[17,15] 0
a[17,16] 0
a[17,17] 0
a[17,18] 0
a[17,19] 0
a[17,20] 0
a[17,21] 0
a[17,22] 0
a[17,23] 0
a[17,24] 0
a[17,25] 0
a[17,26] 0
a[17,27] 0
a[17,28] 0
a[17,29] 0
a[17,30] 0
a[17,31] 0
a[17,32] 0
a[17,33] 0
a[17,34] 0
a[17,35] 0
a[17,36] 0
a[17,37] 0
a[17,38] 0
a[17,39] 0
a[17,40] 0
a[17,41] 0
a[17,42] 0
a[17,43] 0
a[17,44] 1
a[17,45] 3
a[17,46] 10
a[17,47] 10
a[17,48] 10
a[17,49] 10
a[17,50] 10
a[17,51] 10
a[17,52] 10
a[17,53] 10
a[18,0] 0
a[18,1] 0
a[18,2] 0
a[18,3] 0
a[18,4] 0
a[18,5] 0
a[18,6] 0
a[18,7] 0
a[18,8] 0
a[18,9] 0
a[18,10] 0
a[18,11] 0
a[18,12] 0
a[18,13] 0
a[18,14] 0
a[18,15] 0
a[18,16] 0
a[18,17] 0
a[18,18] 0
a[18,19] 0
a[18,20] 0
a[18,21] 0
a[18,22] 0
a[18,23] 0
a[18,24] 0
a[18,25] 0
a[18,26] 0
a[18,27] 0
a[18,28] 0
a[18,29] 0
a[18,30] 0
a[18,31] 0
a[18,32] 0
a[18,33] 0
a[18,34] 0
a[18,35] 0
a[18,36] 0
a[18,37] 0
a[18,38] 0
a[18,39] 0
a[18,40] 0
a[18,41] 0
a[18,42] 0
a[18,43] 0
a[18,44] 1
a[18,45] 4
a[18,46] 4
a[18,47] 4
a[18,48] 4
a[18,49] 4
a[18,50] 4
a[18,51] 4
a[18,52] 4
a[18,53] 4
a[19,0] 0
a[19,1] 0
a[19,2] 0
a[19,3] 0
a[19,4] 0
a[19,5] 0
a[19,6] 0
a[19,7] 0
a[19,8] 0
a[19,9] 0
a[19,10] 0
a[19,11] 0
a[19,12] 0
a[19,13] 0
a[19,14] 0
a[19,15] 0
a[19,16] 0
a[19,17] 0
a[19,18] 0
a[19,19] 0
a[19,20] 0
a[19,21] 0
a[19,22] 0
a[19,23] 0
a[19,24] 0
a[19,25] 0
a[19,26] 0
a[19,27] 0
a[19,28] 0
a[19,29] 0
a[19,30] 0
a[19,31] 0
a[19,32] 0
a[19,33] 0
a[19,34] 0
a[19,35] 0
a[19,36] 0
a[19,37] 0
a[19,38] 0
a[19,39] 0
a[19,40] 0
a[19,41] 0
a[19,42] 0
a[19,43] 0
a[19,44] 0
a[19,45] 0
a[19,46] 0
a[19,47] 0
a[19,48] 0
a[19,49] 5
a[19,50] 8
a[19,51] 8
a[19,52] 10
a[19,53] 10
a[20,0] 0
a[20,1] 0
a[20,2] 0
a[20,3] 0
a[20,4] 0
a[20,5] 0
a[20,6] 0
a[20,7] 0
a[20,8] 0
a[20,9] 0
a[20,10] 0
a[20,11] 0
a[20,12] 0
a[20,13] 0
a[20,14] 0
a[20,15] 0
a[20,16] 0
a[20,17] 0
a[20,18] 0
a[20,19] 0
a[20,20] 0
a[20,21] 0
a[20,22] 0
a[20,23] 0
a[20,24] 0
a[20,25] 0
a[20,26] 0
a[20,27] 0
a[20,28] 0
a[20,29] 0
a[20,30] 0
a[20,31] 0
a[20,32] 0
a[20,33] 0
a[20,34] 0
a[20,35] 0
a[20,36] 0
a[20,37] 0
a[20,38] 0
a[20,39] 0
a[20,40] 0
a[20,41] 0
a[20,42] 0
a[20,43] 0
a[20,44] 0
a[20,45] 2
a[20,46] 9
a[20,47] 9
a[20,48] 9
a[20,49] 9
a[20,50] 9
a[20,51] 9
a[20,52] 9
a[20,53] 9
a[21,0] 0
a[21,1] 0
a[21,2] 0
a[21,3] 0
a[21,4] 0
a[21,5] 0
a[21,6] 0
a[21,7] 0
a[21,8] 0
a[21,9] 0
a[21,10] 0
a[21,11] 0
a[21,12] 0
a[21,13] 0
a[21,14] 0
a[21,15] 0
a[21,16] 0
a[21,17] 0
a[21,18] 0
a[21,19] 0
a[21,20] 0
a[21,21] 0
a[21,22] 0
a[21,23] 0
a[21,24] 0
a[21,25] 0
a[21,26] 0
a[21,27] 0
a[21,28] 0
a[21,29] 0
a[21,30] 0
a[21,31] 0
a[21,32] 0
a[21,33] 0
a[21,34] 0
a[21,35] 0
a[21,36] 0
a[21,37] 0
a[21,38] 0
a[21,39] 0
a[21,40] 0
a[21,41] 0
a[21,42] 0
a[21,43] 0
a[21,44] 0
a[21,45] 2
a[21,46] 6
a[21,47] 6
a[21,48] 6
a[21,49] 6
a[21,50] 6
a[21,51] 6
a[21,52] 6
a[21,53] 6
a[22,0] 0
a[22,1] 0
a[22,2] 0
a[22,3] 0
a[22,4] 0
a[22,5] 0
a[22,6] 0
a[22,7] 0
a[22,8] 0
a[22,9] 0
a[22,10] 0
a[22,11] 0
a[22,12] 0
a[22,13] 0
a[22,14] 0
a[22,15] 0
a[22,16] 0
a[22,17] 0
a[22,18] 0
a[22,19] 0
a[22,20] 0
a[22,21] 0
a[22,22] 0
a[22,23] 0
a[22,24] 0
a[22,25] 0
a[22,26] 0
a[22,27] 0
a[22,28] 0
a[22,29] 0
a[22,30] 0
a[22,31] 0
a[22,32] 0
a[22,33] 0
a[22,34] 0
a[22,35] 0
a[22,36] 0
a[22,37] 0
a[22,38] 0
a[22,39] 0
a[22,40] 0
a[22,41] 0
a[22,42] 0
a[22,43] 0
a[22,44] 0
a[22,45] 0
a[22,46] 0
a[22,47] 0
a[22,48] 5
a[22,49] 5
a[22,50] 5
a[22,51] 5
a[22,52] 5
a[22,53] 5
a[23,0] 0
a[23,1] 0
a[23,2] 0
a[23,3] 0
a[23,4] 0
a[23,5] 0
a[23,6] 0
a[23,7] 0
a[23,8] 0
a[23,9] 0
a[23,10] 0
a[23,11] 0
a[23,12] 0
a[23,13] 0
a[23,14] 0
a[23,15] 0
a[23,16] 0
a[23,17] 0
a[23,18] 0
a[23,19] 0
a[23,20] 0
a[23,21] 0
a[23,22] 0
a[23,23] 0
a[23,24] 0
a[23,25] 0
a[23,26] 0
a[23,27] 0
a[23,28] 0
a[23,29] 0
a[23,30] 0
a[23,31] 0
a[23,32] 0
a[23,33] 0
a[23,34] 0
a[23,35] 0
a[23,36] 0
a[23,37] 0
a[23,38] 0
a[23,39] 0
a[23,40] 0
a[23,41] 0
a[23,42] 0
a[23,43] 0
a[23,44] 0
a[23,45] 0
a[23,46] 0
a[23,47] 0
a[23,48] 0
a[23,49] 0
a[23,50] 3
a[23,51] 3
a[23,52] 3
a[23,53] 3
a[24,0] 0
a[24,1] 0
a[24,2] 0
a[24,3] 0
a[24,4] 0
a[24,5] 0
a[24,6] 0
a[24,7] 0
a[24,8] 0
a[24,9] 0
a[24,10] 0
a[24,11] 0
a[24,12] 0
a[24,13] 0
a[24,14] 0
a[24,15] 0
a[24,16] 0
a[24,17] 0
a[24,18] 0
a[24,19] 0
a[24,20] 0
a[24,21] 0
a[24,22] 0
a[24,23] 0
a[24,24] 0
a[24,25] 0
a[24,26] 0
a[24,27] 0
a[24,28] 0
a[24,29] 0
a[24,30] 0
a[24,31] 0
a[24,32] 0
a[24,33] 0
a[24,34] 0
a[24,35] 0
a[24,36] 0
a[24,37] 0
a[24,38] 0
a[24,39] 0
a[24,40] 0
a[24,41] 0
a[24,42] 0
a[24,43] 0
a[24,44] 0
a[24,45] 0
a[24,46] 0
a[24,47] 0
a[24,48] 0
a[24,49] 0
a[24,50] 0
a[24,51] 0
a[24,52] 2
a[24,53] 2
a[25,0] 0
a[25,1] 0
a[25,2] 0
a[25,3] 0
a[25,4] 0
a[25,5] 0
a[25,6] 0
a[25,7] 0
a[25,8] 0
a[25,9] 0
a[25,10] 0
a[25,11] 0
a[25,12] 0
a[25,13] 0
a[25,14] 0
a[25,15] 0
a[25,16] 0
a[25,17] 0
a[25,18] 0
a[25,19] 0
a[25,20] 0
a[25,21] 0
a[25,22] 0
a[25,23] 0
a[25,24] 0
a[25,25] 0
a[25,26] 0
a[25,27] 0
a[25,28] 0
a[25,29] 0
a[25,30] 0
a[25,31] 0
a[25,32] 0
a[25,33] 0
a[25,34] 0
a[25,35] 0
a[25,36] 0
a[25,37] 0
a[25,38] 0
a[25,39] 0
a[25,40] 0
a[25,41] 0
a[25,42] 0
a[25,43] 0
a[25,44] 0
a[25,45] 0
a[25,46] 0
a[25,47] 0
a[25,48] 4
a[25,49] 4
a[25,50] 4
a[25,51] 4
a[25,52] 4
a[25,53] 4
a[26,0] 0
a[26,1] 0
a[26,2] 0
a[26,3] 0
a[26,4] 0
a[26,5] 0
a[26,6] 0
a[26,7] 0
a[26,8] 0
a[26,9] 0
a[26,10] 0
a[26,11] 0
a[26,12] 0
a[26,13] 0
a[26,14] 0
a[26,15] 0
a[26,16] 0
a[26,17] 0
a[26,18] 0
a[26,19] 0
a[26,20] 0
a[26,21] 0
a[26,22] 0
a[26,23] 0
a[26,24] 0
a[26,25] 0
a[26,26] 0
a[26,27] 0
a[26,28] 0
a[26,29] 0
a[26,30] 0
a[26,31] 0
a[26,32] 0
a[26,33] 0
a[26,34] 0
a[26,35] 0
a[26,36] 0
a[26,37] 0
a[26,38] 0
a[26,39] 0
a[26,40] 0
a[26,41] 0
a[26,42] 0
a[26,43] 0
a[26,44] 0
a[26,45] 0
a[26,46] 0
a[26,47] 0
a[26,48] 4
a[26,49] 4
a[26,50] 7
a[26,51] 7
a[26,52] 7
a[26,53] 7
a[27,0] 0
a[27,1] 0
a[27,2] 0
a[27,3] 0
a[27,4] 0
a[27,5] 0
a[27,6] 0
a[27,7] 0
a[27,8] 0
a[27,9] 0
a[27,10] 0
a[27,11] 0
a[27,12] 0
a[27,13] 0
a[27,14] 0
a[27,15] 0
a[27,16] 0
a[27,17] 0
a[27,18] 0
a[27,19] 0
a[27,20] 0
a[27,21] 0
a[27,22] 0
a[27,23] 0
a[27,24] 0
a[27,25] 0
a[27,26] 0
a[27,27] 0
a[27,28] 0
a[27,29] 0
a[27,30] 0
a[27,31] 0
a[27,32] 0
a[27,33] 0
a[27,34] 0
a[27,35] 0
a[27,36] 0
a[27,37] 0
a[27,38] 0
a[27,39] 0
a[27,40] 0
a[27,41] 0
a[27,42] 0
a[27,43] 0
a[27,44] 0
a[27,45] 0
a[27,46] 0
a[27,47] 0
a[27,48] 9
a[27,49] 9
a[27,50] 9
a[27,51] 9
a[27,52] 9
a[27,53] 9
a[28,0] 0
a[28,1] 0
a[28,2] 0
a[28,3] 0
a[28,4] 0
a[28,5] 0
a[28,6] 0
a[28,7] 0
a[28,8] 0
a[28,9] 0
a[28,10] 0
a[28,11] 0
a[28,12] 0
a[28,13] 0
a[28,14] 0
a[28,15] 0
a[28,16] 0
a[28,17] 0
a[28,18] 0
a[28,19] 0
a[28,20] 0
a[28,21] 0
a[28,22] 0
a[28,23] 0
a[28,24] 0
a[28,25] 0
a[28,26] 0
a[28,27] 0
a[28,28] 0
a[28,29] 0
a[28,30] 0
a[28,31] 0
a[28,32] 0
a[28,33] 0
a[28,34] 0
a[28,35] 0
a[28,36] 0
a[28,37] 0
a[28,38] 0
a[28,39] 0
a[28,40] 0
a[28,41] 0
a[28,42] 0
a[28,43] 0
a[28,44] 0
a[28,45] 0
a[28,46] 0
a[28,47] 0
a[28,48] 0
a[28,49] 0
a[28,50] 3
a[28,51] 8
a[28,52] 10
a[28,53] 10
a[29,0] 0
a[29,1] 0
a[29,2] 0
a[29,3] 0
a[29,4] 0
a[29,5] 0
a[29,6] 0
a[29,7] 0
a[29,8] 0
a[29,9] 0
a[29,10] 0
a[29,11] 0
a[29,12] 0
a[29,13] 0
a[29,14] 0
a[29,15] 0
a[29,16] 0
a[29,17] 0
a[29,18] 0
a[29,19] 0
a[29,20] 0
a[29,21] 0
a[29,22] 0
a[29,23] 0
a[29,24] 0
a[29,25] 0
a[29,26] 0
a[29,27] 0
a[29,28] 0
a[29,29] 0
a[29,30] 0
a[29,31] 0
a[29,32] 0
a[29,33] 0
a[29,34] 0
a[29,35] 0
a[29,36] 0
a[29,37] 0
a[29,38] 0
a[29,39] 0
a[29,40] 0
a[29,41] 0
a[29,42] 0
a[29,43] 0
a[29,44] 0
a[29,45] 0
a[29,46] 0
a[29,47] 0
a[29,48] 0
a[29,49] 0
a[29,50] 0
a[29,51] 0
a[29,52] 0
a[29,53] 10
a[30,0] 0
a[30,1] 0
a[30,2] 0
a[30,3] 0
a[30,4] 0
a[30,5] 0
a[30,6] 0
a[30,7] 0
a[30,8] 0
a[30,9] 0
a[30,10] 0
a[30,11] 0
a[30,12] 0
a[30,13] 0
a[30,14] 0
a[30,15] 0
a[30,16] 0
a[30,17] 0
a[30,18] 0
a[30,19] 0
a[30,20] 0
a[30,21] 0
a[30,22] 0
a[30,23] 0
a[30,24] 0
a[30,25] 0
a[30,26] 0
a[30,27] 0
a[30,28] 0
a[30,29] 0
a[30,30] 0
a[30,31] 0
a[30,32] 0
a[30,33] 0
a[30,34] 0
a[30,35] 0
a[30,36] 0
a[30,37] 0
a[30,38] 0
a[30,39] 0
a[30,40] 0
a[30,41] 0
a[30,42] 0
a[30,43] 0
a[30,44] 0
a[30,45] 0
a[30,46] 0
a[30,47] 0
a[30,48] 0
a[30,49] 0
a[30,50] 0
a[30,51] 0
a[30,52] 0
a[30,53] 6
a[31,0] 0
a[31,1] 0
a[31,2] 0
a[31,3] 0
a[31,4] 0
a[31,5] 0
a[31,6] 0
a[31,7] 0
a[31,8] 0
a[31,9] 0
a[31,10] 0
a[31,11] 0
a[31,12] 0
a[31,13] 0
a[31,14] 0
a[31,15] 0
a[31,16] 0
a[31,17] 0
a[31,18] 0
a[31,19] 0
a[31,20] 0
a[31,21] 0
a[31,22] 0
a[31,23] 0
a[31,24] 0
a[31,25] 0
a[31,26] 0
a[31,27] 0
a[31,28] 0
a[31,29] 0
a[31,30] 0
a[31,31] 0
a[31,32] 0
a[31,33] 0
a[31,34] 0
a[31,35] 0
a[31,36] 0
a[31,37] 0
a[31,38] 0
a[31,39] 0
a[31,40] 0
a[31,41] 0
a[31,42] 0
a[31,43] 0
a[31,44] 0
a[31,45] 0
a[31,46] 0
a[31,47] 0
a[31,48] 0
a[31,49] 0
a[31,50] 0
a[31,51] 0
a[31,52] 0
a[31,53] 0
t[0] 0
t[1] 3
t[2] 8
t[3] 8
t[4] 8
t[5] 8
t[6] 8
t[7] 8
t[8] 8
t[9] 8
t[10] 8
t[11] 8
t[12] 11
t[13] 11
t[14] 11
t[15] 13
t[16] 13
t[17] 18
t[18] 18
t[19] 18
t[20] 18
t[21] 18
t[22] 18
t[23] 18
t[24] 18
t[25] 18
t[26] 20
t[27] 20
t[28] 21
t[29] 21
t[30] 25
t[31] 25
t[32] 25
t[33] 25
t[34] 25
t[35] 25
t[36] 25
t[37] 25
t[38] 25
t[39] 25
t[40] 25
t[41] 28
t[42] 28
t[43] 32
t[44] 33
t[45] 35
t[46] 39
t[47] 39
t[48] 43
t[49] 43
t[50] 46
t[51] 46
t[52] 48
t[53] 48
C_max 48
